p edge 23
e 0 6
e 0 13
e 0 17
e 0 18
e 0 21
e 1 2
e 1 4
e 1 11
e 2 4
e 2 8
e 2 11
e 2 18
e 3 8
e 3 18
e 3 20
e 3 22
e 4 18
e 4 21
e 5 9
e 5 13
e 5 15
e 5 16
e 5 17
e 6 7
e 6 15
e 6 17
e 6 18
e 6 22
e 7 15
e 7 22
e 8 11
e 8 18
e 9 10
e 9 12
e 9 13
e 10 12
e 10 13
e 10 19
e 12 14
e 12 19
e 13 16
e 13 17
e 13 19
e 13 21
e 14 19
e 15 17
e 16 17
e 18 21
e 18 22
e 19 21
e 20 22
c k 1
